
Gurobi 9.0.1 (linux64) logging started Thu Apr 30 23:16:15 2020

Gurobi Optimizer version 9.0.1 build v9.0.1rc0 (linux64)
Optimize a model with 31542 rows, 27380 columns and 602600 nonzeros
Model fingerprint: 0xad976c7a
Variable types: 0 continuous, 27380 integer (27342 binary)
Coefficient statistics:
  Matrix range     [1e+00, 2e+01]
  Objective range  [2e+00, 1e+02]
  Bounds range     [1e+00, 1e+00]
  RHS range        [1e+00, 1e+00]

User MIP start produced solution with objective 1132 (0.98s)
Loaded user MIP start with objective 1132

Presolve removed 12792 rows and 8704 columns (presolve time = 5s) ...
Presolve removed 12834 rows and 8764 columns (presolve time = 10s) ...
Presolve removed 12834 rows and 8764 columns
Presolve time: 11.02s
Presolved: 18708 rows, 18616 columns, 503840 nonzeros
Variable types: 0 continuous, 18616 integer (18580 binary)

Root simplex log...

Iteration    Objective       Primal Inf.    Dual Inf.      Time
       0    0.0000000e+00   2.280000e+02   0.000000e+00     14s
    1455    5.2300005e+02   6.877580e+03   0.000000e+00     15s
    3555    5.2808343e+02   4.131180e+03   0.000000e+00     20s
    4815    5.3083345e+02   3.129177e+04   0.000000e+00     25s
    5991    5.3422349e+02   2.579912e+03   0.000000e+00     30s
    7167    5.3462777e+02   4.047075e+04   0.000000e+00     35s
    8427    5.3691284e+02   2.101410e+04   0.000000e+00     40s
    9519    5.3793420e+02   2.441413e+04   0.000000e+00     45s
   10611    5.3873026e+02   2.993454e+04   0.000000e+00     50s
   11535    5.4019947e+02   3.083337e+03   0.000000e+00     55s
   12543    5.4150052e+02   2.646611e+03   0.000000e+00     60s
   13467    5.4233726e+02   7.156678e+03   0.000000e+00     65s
   14475    5.4296888e+02   1.874723e+04   0.000000e+00     70s
   15567    5.4527260e+02   1.440626e+04   0.000000e+00     75s
   16659    5.4681404e+02   2.386626e+04   0.000000e+00     80s
   17667    5.4743206e+02   6.777305e+03   0.000000e+00     85s
   18591    5.4828003e+02   4.112434e+03   0.000000e+00     90s
   19515    5.4917626e+02   3.883797e+03   0.000000e+00     95s
   20371    5.4958092e+02   3.240796e+03   0.000000e+00    100s
   21300    5.5003268e+02   6.730333e+03   0.000000e+00    105s
   22140    5.5044602e+02   1.907893e+04   0.000000e+00    110s
   22988    5.5131690e+02   4.262735e+04   0.000000e+00    115s
   23777    5.5172694e+02   3.942693e+03   0.000000e+00    120s
   24617    5.5201758e+02   9.915168e+02   0.000000e+00    125s
   25467    5.5253181e+02   2.248055e+03   0.000000e+00    130s
   26223    5.5295801e+02   8.640681e+04   0.000000e+00    135s
   26979    5.5343928e+02   3.560130e+04   0.000000e+00    140s
   27843    5.5373661e+02   4.693160e+03   0.000000e+00    145s
   28602    5.5396237e+02   2.812655e+03   0.000000e+00    150s
   29358    5.5410883e+02   4.412406e+03   0.000000e+00    155s
   30183    5.5426713e+02   9.867217e+03   0.000000e+00    160s
   30951    5.5440210e+02   4.705916e+02   0.000000e+00    165s
Warning: Markowitz tolerance tightened to 0.03125
   31748    5.5449399e+02   4.936630e+03   0.000000e+00    170s
   32460    5.5465173e+02   1.462981e+03   0.000000e+00    175s
   33216    5.5486993e+02   8.941269e+02   0.000000e+00    180s
   33888    5.5499958e+02   8.253267e+02   0.000000e+00    185s
   34560    5.5511716e+02   2.864606e+02   0.000000e+00    190s
   35316    5.5526241e+02   1.672022e+03   0.000000e+00    196s
   35904    5.5536573e+02   1.876764e+02   0.000000e+00    200s
   36576    5.5548095e+02   3.253937e+02   0.000000e+00    205s
   37164    5.5561879e+02   4.522849e+03   0.000000e+00    210s
   37955    5.5568229e+02   3.288230e-01   0.000000e+00    216s
   38024    5.5568250e+02   0.000000e+00   0.000000e+00    217s

Root relaxation: objective 5.556825e+02, 38024 iterations, 204.39 seconds

    Nodes    |    Current Node    |     Objective Bounds      |     Work
 Expl Unexpl |  Obj  Depth IntInf | Incumbent    BestBd   Gap | It/Node Time

     0     0  555.68250    0 2828 1132.00000  555.68250  50.9%     -  225s
     0     0  589.82901    0 2756 1132.00000  589.82901  47.9%     -  436s
     0     0  592.08921    0 2761 1132.00000  592.08921  47.7%     -  509s
     0     0  592.46612    0 2735 1132.00000  592.46612  47.7%     -  546s
     0     0  592.49268    0 2754 1132.00000  592.49268  47.7%     -  556s
     0     0  592.49330    0 2742 1132.00000  592.49330  47.7%     -  558s
     0     0  609.06426    0 2802 1132.00000  609.06426  46.2%     -  801s
     0     0  611.73791    0 2916 1132.00000  611.73791  46.0%     -  914s
     0     0  611.85526    0 2906 1132.00000  611.85526  45.9%     -  937s
     0     0  611.86609    0 2905 1132.00000  611.86609  45.9%     -  949s
     0     0  611.86657    0 2902 1132.00000  611.86657  45.9%     -  952s
     0     0  617.89215    0 2988 1132.00000  617.89215  45.4%     - 1292s
     0     0  618.49722    0 3025 1132.00000  618.49722  45.4%     - 1386s
     0     0  618.68824    0 3004 1132.00000  618.68824  45.3%     - 1427s
     0     0  618.69704    0 2986 1132.00000  618.69704  45.3%     - 1435s
     0     0  621.63316    0 2997 1132.00000  621.63316  45.1%     - 1713s
     0     0  622.03398    0 2973 1132.00000  622.03398  45.1%     - 1793s
     0     0  622.09453    0 2980 1132.00000  622.09453  45.0%     - 1817s
     0     0  622.12055    0 2984 1132.00000  622.12055  45.0%     - 1832s
     0     0  622.17448    0 2982 1132.00000  622.17448  45.0%     - 1851s
     0     0  622.17878    0 2981 1132.00000  622.17878  45.0%     - 1857s
     0     0  623.69044    0 3062 1132.00000  623.69044  44.9%     - 2006s
     0     0  623.86800    0 3053 1132.00000  623.86800  44.9%     - 2070s
     0     0  623.90363    0 3045 1132.00000  623.90363  44.9%     - 2089s
     0     0  623.90856    0 3037 1132.00000  623.90856  44.9%     - 2096s
     0     0  624.43942    0 3077 1132.00000  624.43942  44.8%     - 2190s
     0     0  624.51440    0 3043 1132.00000  624.51440  44.8%     - 2264s
     0     0  624.53406    0 3064 1132.00000  624.53406  44.8%     - 2280s
     0     0  624.54594    0 3040 1132.00000  624.54594  44.8%     - 2292s
     0     0  625.12458    0 3076 1132.00000  625.12458  44.8%     - 2392s
     0     0  625.21494    0 3071 1132.00000  625.21494  44.8%     - 2463s
     0     0  625.26163    0 3084 1132.00000  625.26163  44.8%     - 2485s
     0     0  625.27873    0 3095 1132.00000  625.27873  44.8%     - 2498s
     0     0  625.79780    0 3125 1132.00000  625.79780  44.7%     - 2568s
     0     0  625.88843    0 3146 1132.00000  625.88843  44.7%     - 2646s
     0     0  625.90605    0 3157 1132.00000  625.90605  44.7%     - 2659s
     0     0  626.11508    0 3101 1132.00000  626.11508  44.7%     - 2700s
     0     0  626.18063    0 3121 1132.00000  626.18063  44.7%     - 2726s
     0     0  626.20619    0 3122 1132.00000  626.20619  44.7%     - 2739s
     0     0  626.22159    0 3126 1132.00000  626.22159  44.7%     - 2748s
     0     0  626.39352    0 3129 1132.00000  626.39352  44.7%     - 2787s
     0     0  626.44164    0 3114 1132.00000  626.44164  44.7%     - 2812s
     0     0  626.47169    0 3116 1132.00000  626.47169  44.7%     - 2829s
     0     0  626.48114    0 3126 1132.00000  626.48114  44.7%     - 2838s
     0     0  626.86179    0 3119 1132.00000  626.86179  44.6%     - 2894s
     0     0  626.92995    0 3151 1132.00000  626.92995  44.6%     - 2919s
     0     0  626.95604    0 3134 1132.00000  626.95604  44.6%     - 2933s
     0     0  626.97482    0 3143 1132.00000  626.97482  44.6%     - 2943s
     0     0  627.24735    0 3135 1132.00000  627.24735  44.6%     - 2991s
     0     0  627.30356    0 3152 1132.00000  627.30356  44.6%     - 3016s
     0     0  627.31354    0 3171 1132.00000  627.31354  44.6%     - 3025s
     0     0  627.51915    0 3131 1132.00000  627.51915  44.6%     - 3068s
     0     0  627.59223    0 3141 1132.00000  627.59223  44.6%     - 3151s
     0     0  627.61983    0 3163 1132.00000  627.61983  44.6%     - 3164s
     0     0  627.63350    0 3162 1132.00000  627.63350  44.6%     - 3174s
     0     0  627.73254    0 3171 1132.00000  627.73254  44.5%     - 3206s
     0     0  627.77640    0 3167 1132.00000  627.77640  44.5%     - 3227s
     0     0  627.78340    0 3178 1132.00000  627.78340  44.5%     - 3236s
     0     0  627.96274    0 3169 1132.00000  627.96274  44.5%     - 3277s
     0     0  627.96274    0 3169 1132.00000  627.96274  44.5%     - 3294s
     0     2  627.96415    0 3159 1132.00000  627.96415  44.5%     - 3512s

Cutting planes:
  Cover: 1
  MIR: 114
  StrongCG: 31
  Zero half: 60
  Mod-K: 5
  RLT: 1681

Explored 1 nodes (338076 simplex iterations) in 3600.03 seconds
Thread count was 1 (of 40 available processors)

Solution count 1: 1132 

Time limit reached
Best objective 1.132000000000e+03, best bound 6.280000000000e+02, gap 44.5230%

User-callback calls 11455, time in user-callback 0.02 sec
